c status 187 1469389096991
c status 185 1469389097823
c status 182 1469389097865
c status 179 1469389097893
c status 178 1469389098142
c status 177 1469389098743
c status 176 1469389102758
c status 175 1469389112553
c status 174 1469389120126
c status 173 1469389277056
s td 42 173 231
b 1 27 54 205 46 11 75 66 225 158 206 51 137 172 77 121 187 88 14 230 182 156 7 71 47 189 145 41 199 224 100 154
b 2 54 33 205 46 11 75 214 170 174 66 225 158 206 51 137 136 172 77 121 187 69 144 88 21 14 124 215 230 182 198 156 103 7 71 96 47 115 189 228 177 145 85 41 199 224 119 164 100 154 133
b 3 52 30 205 46 208 3 9 184 66 220 136 107 89 143 34 86 10 132 210 37 36 63 160 186 129 28 76 171 222 164 201
b 4 30 33 205 46 208 3 149 221 9 161 114 184 66 203 35 220 136 107 89 126 87 143 34 86 10 132 210 37 36 63 8 124 179 160 78 64 57 186 129 28 189 76 171 222 139 173 112 224 164 201
b 5 200 74 33 46 161 214 24 60 90 83 146 106 44 1 51 223 77 229 132 69 58 217 5 72 171 181 112 13 176 20 162
b 6 74 122 33 205 46 9 75 161 214 24 184 60 90 83 146 106 44 1 51 223 109 175 165 77 229 132 69 14 58 22 152 192 166 217 219 94 5 72 39 209 171 181 140 112 13 176 101 20 162 56
b 7 122 33 205 46 208 49 9 75 161 214 24 184 60 90 83 146 106 44 1 26 183 51 223 109 143 175 165 77 163 110 229 132 155 69 21 207 8 14 194 58 22 152 156 192 166 217 82 96 47 219 98 94 5 72 39 209 171 181 140 173 112 13 176 101 20 162 56
b 8 33 205 46 208 3 11 149 221 49 9 75 161 214 24 114 184 60 90 170 83 174 146 66 203 106 44 35 220 225 158 1 26 183 206 51 223 137 109 136 107 89 126 87 143 34 172 175 165 77 121 163 86 10 110 229 132 187 155 69 210 144 88 37 36 21 207 63 8 14 124 194 58 215 179 230 160 78 22 152 182 198 156 103 64 192 166 57 186 129 7 28 71 217 82 96 47 219 98 94 5 72 39 115 189 76 209 171 228 222 181 177 145 140 139 85 41 199 173 112 13 176 224 101 20 119 162 164 56 100 154 133 201
b 9 65 197 168 178 3 161 24 50 203 43 183 89 163 53 36 226 103 84 12 31 219 231 209 145 85 151 41 199 13 133 131
b 10 111 197 168 130 178 208 9 75 114 19 174 146 40 220 118 229 150 144 91 194 156 64 45 142 39 80 212 55 20 123 154
b 11 197 168 130 178 70 208 3 221 9 75 161 24 114 19 167 60 174 146 50 203 40 220 43 183 118 89 126 211 95 163 229 53 150 144 91 36 194 179 226 156 103 64 7 45 84 28 12 31 142 219 39 80 231 209 145 85 151 212 41 199 13 55 20 123 154 133 131
b 12 168 130 178 70 208 3 11 221 9 75 161 24 114 19 167 134 60 90 174 146 50 203 40 220 43 183 118 89 126 211 95 34 165 163 61 229 155 53 150 144 91 36 194 179 226 156 103 64 7 45 84 28 12 31 142 219 98 39 80 231 209 145 85 151 212 41 199 13 55 20 123 154 133 131 23
b 13 185 148 130 11 49 9 106 35 1 107 211 38 202 53 150 210 88 215 78 120 217 204 82 18 153 177 190 56 100 133 131
b 14 148 105 130 178 70 208 11 221 49 9 19 106 35 43 1 92 223 107 211 38 110 48 202 53 150 210 88 36 215 78 152 198 129 120 217 204 82 18 153 228 181 177 162 196 190 56 100 133 131 23
b 15 105 130 178 70 208 3 11 149 221 49 9 75 19 106 35 43 1 26 92 223 107 211 113 195 38 10 110 187 48 202 53 150 210 88 36 108 215 78 22 152 198 57 186 129 120 71 217 204 82 213 18 153 228 181 177 151 212 119 162 196 190 42 56 100 133 131 23
b 16 130 178 70 208 3 11 149 221 49 9 75 161 214 24 114 19 167 134 60 90 174 146 50 203 106 35 40 220 43 1 26 183 118 92 223 107 89 126 211 113 95 34 195 165 38 163 61 10 110 229 187 155 48 202 53 150 210 144 91 88 36 108 194 215 179 227 78 22 226 152 198 156 103 64 57 186 129 7 45 120 84 28 71 12 217 31 204 82 142 213 18 219 98 39 80 231 153 209 228 181 177 145 85 151 212 41 199 13 55 20 119 162 196 123 190 42 56 100 154 133 131 23
b 17 178 70 208 3 11 149 221 49 9 75 161 214 24 114 19 167 134 60 90 174 146 50 203 106 35 40 220 43 1 26 183 118 92 223 107 89 126 211 113 95 34 195 165 121 38 163 61 10 110 229 187 155 48 202 53 150 210 144 91 88 36 108 194 215 179 227 78 22 226 188 152 198 156 103 64 57 186 129 7 45 120 84 28 71 12 217 31 204 82 142 213 18 219 98 39 80 231 153 209 228 181 177 145 85 151 212 41 199 13 55 20 119 162 196 123 190 42 56 100 154 133 131 23
b 18 208 3 11 149 221 49 9 75 161 214 24 114 19 167 184 134 60 90 170 83 174 146 66 50 203 106 44 35 40 220 43 225 158 1 26 183 118 206 51 92 223 137 109 136 107 89 126 211 113 95 87 143 34 172 195 175 165 77 121 38 163 61 86 10 110 229 132 187 155 48 69 202 53 150 210 144 91 88 37 36 108 21 207 63 8 14 124 194 58 215 179 230 227 160 78 22 226 188 152 182 198 156 103 64 192 166 57 186 129 7 45 120 84 28 71 12 217 31 204 82 142 96 213 47 18 219 98 94 5 72 39 115 80 231 189 153 76 209 171 228 222 181 177 145 140 139 85 151 212 41 199 173 112 13 55 176 224 101 20 119 162 196 164 123 190 42 56 100 154 133 131 23 201
b 19 149 221 49 9 75 161 214 24 114 19 167 184 134 60 90 170 83 174 146 66 50 135 203 106 44 35 40 220 43 225 158 180 1 26 183 118 206 51 92 223 137 109 136 107 89 126 211 113 95 87 143 34 172 195 175 165 77 121 38 163 61 86 10 110 229 132 187 155 48 69 117 202 53 150 210 144 91 88 37 36 108 21 207 63 8 14 124 194 58 215 179 230 227 160 78 22 226 188 152 182 198 156 103 64 192 166 57 186 129 7 45 120 84 28 71 12 217 31 204 82 142 96 213 47 18 219 98 94 5 72 39 115 80 231 189 153 76 209 171 228 222 181 177 145 140 139 85 151 212 41 199 173 112 13 55 176 224 101 20 119 162 196 164 123 190 42 56 100 154 133 131 23 201
b 20 49 9 75 161 214 24 114 19 167 184 134 60 90 170 83 174 146 66 50 135 203 106 44 35 40 220 43 225 158 180 1 26 183 118 206 51 92 223 137 109 136 107 89 126 211 113 95 87 143 34 172 195 175 165 77 121 38 163 61 86 10 110 229 132 187 155 48 69 117 202 53 150 210 144 91 88 37 36 108 21 207 63 8 14 68 124 194 58 215 179 230 227 160 78 22 226 188 152 182 198 156 103 64 192 166 57 186 129 7 45 120 84 28 71 12 217 31 204 82 142 96 213 47 18 219 98 94 5 72 39 115 80 231 189 153 76 209 171 228 222 191 181 177 145 140 139 85 151 212 41 199 173 112 13 55 176 224 101 20 119 162 196 164 123 190 42 56 100 154 133 131 23 201
b 21 4 81 104 147 128 2 29 102 59 17 146 183 109 136 34 61 69 194 78 186 31 213 98 39 189 153 140 41 112 119 100
b 22 81 104 138 147 128 25 193 2 29 102 59 17 167 146 106 35 183 109 136 89 143 34 61 48 69 194 179 78 226 103 186 7 31 213 47 18 98 39 189 153 228 191 181 140 41 112 224 119 164 100
b 23 104 138 147 128 25 6 193 2 29 102 59 17 167 90 146 135 106 35 180 183 109 136 89 143 34 172 61 132 48 69 150 88 36 207 8 194 179 78 226 188 103 186 7 31 82 213 47 18 98 72 39 189 153 228 191 181 140 85 212 41 112 224 119 164 100
b 24 169 127 138 128 193 114 19 66 135 44 35 113 95 38 163 61 88 21 207 68 227 160 5 115 231 76 199 119 73 162 123
b 25 127 125 138 147 128 193 15 17 116 114 19 184 134 66 135 44 35 51 92 223 113 95 195 38 163 61 86 88 108 21 207 63 14 68 227 160 45 5 72 39 115 231 76 177 199 119 73 162 123 190
b 26 125 138 147 128 6 193 29 15 17 116 114 19 184 134 66 50 135 44 35 206 51 92 223 113 95 87 34 195 38 163 61 86 117 210 91 88 108 21 207 63 14 68 124 227 160 192 7 45 18 219 5 72 39 115 231 76 222 177 85 199 55 101 119 73 162 123 190
b 27 138 147 128 25 6 193 2 29 32 102 59 15 17 116 114 19 167 184 134 90 146 66 50 135 106 44 35 180 183 206 51 92 223 109 136 89 113 95 87 143 34 172 195 38 163 61 86 132 48 69 117 150 210 91 88 36 108 21 207 63 8 14 68 124 194 179 230 227 160 78 226 188 103 192 186 7 45 31 82 213 47 18 219 98 5 72 39 115 231 189 153 76 228 222 191 181 177 140 85 212 41 199 112 55 224 101 119 73 162 196 164 123 190 100 23
b 28 147 128 25 16 6 193 2 29 32 102 59 15 17 116 114 19 167 184 134 90 146 66 50 135 106 44 35 180 183 206 51 92 223 137 109 136 89 113 95 87 143 34 172 195 38 163 61 86 132 48 69 117 53 150 210 91 88 36 108 21 207 63 8 14 68 124 194 179 230 227 160 78 226 188 103 192 186 7 45 84 31 82 213 47 18 219 98 5 72 39 115 231 189 153 76 228 222 191 181 177 140 85 212 41 199 112 55 224 101 119 73 162 196 164 123 190 100 23
b 29 159 67 79 62 16 6 32 15 17 170 203 211 113 95 143 132 187 69 117 202 58 179 64 142 96 94 76 209 145 212 100
b 30 67 157 79 62 99 93 16 6 32 102 15 17 134 170 203 206 92 211 113 95 143 172 229 132 187 69 117 202 58 179 78 22 226 64 217 31 204 142 96 94 80 76 209 228 145 139 212 173 100 154
b 31 157 79 62 99 93 25 16 6 32 102 15 17 116 134 170 66 50 203 44 225 118 206 92 211 113 95 143 172 10 229 132 187 155 69 117 202 144 207 58 179 78 22 226 182 64 28 12 217 31 204 142 96 94 80 76 209 228 191 145 139 212 173 55 176 42 100 154
b 32 216 141 97 93 25 102 59 116 19 170 40 158 1 89 126 175 165 48 202 124 227 192 57 120 71 142 72 231 171 41 201
b 33 218 141 97 93 16 32 17 83 174 135 107 87 195 77 150 91 8 68 152 182 198 103 166 186 129 12 204 47 151 112 73
b 34 141 97 79 99 93 25 16 32 102 59 17 116 19 60 170 83 174 135 40 158 1 26 107 89 126 87 172 195 175 165 77 48 202 150 91 8 68 124 215 227 152 182 198 103 192 166 57 186 129 120 71 12 204 142 47 72 115 80 231 153 171 151 41 112 73 190 201
b 35 97 79 62 99 93 25 16 29 32 102 59 17 116 19 184 60 170 83 174 135 40 158 1 26 206 107 89 126 87 172 195 175 165 77 110 229 48 202 150 91 8 68 124 215 227 160 188 152 182 198 103 192 166 57 186 129 120 71 12 204 142 47 72 115 80 231 153 171 222 151 41 112 73 190 201
b 36 79 62 99 93 25 16 6 2 29 32 102 59 15 17 116 19 184 134 60 170 83 174 66 50 135 203 44 40 43 225 158 1 26 118 206 92 107 89 126 211 113 95 87 143 172 195 175 165 77 10 110 229 132 187 155 48 69 117 202 150 144 91 207 8 68 124 58 215 179 227 160 78 22 226 188 152 182 198 103 64 192 166 57 186 129 120 28 71 12 217 31 204 142 96 47 94 72 115 80 231 153 76 209 171 228 222 191 145 139 151 212 41 173 112 55 176 73 190 42 100 154 201
b 37 62 99 93 25 16 6 193 2 29 32 102 59 15 17 116 19 184 134 60 170 83 174 66 50 135 203 44 40 43 225 158 1 26 118 206 92 107 89 126 211 113 95 87 143 172 195 175 165 77 10 110 229 132 187 155 48 69 117 202 150 144 91 207 8 68 124 58 215 179 227 160 78 22 226 188 152 182 198 103 64 192 166 57 186 129 120 28 71 12 217 31 204 142 96 47 94 72 115 80 231 153 76 209 171 228 222 191 145 139 151 212 41 173 112 13 55 176 73 190 42 100 154 201
b 38 25 16 6 193 2 29 32 102 59 15 17 116 114 19 167 184 134 60 90 170 83 174 146 66 50 135 203 106 44 35 40 43 225 158 180 1 26 183 118 206 51 92 223 137 109 136 107 89 126 211 113 95 87 143 34 172 195 175 165 77 38 163 61 86 10 110 229 132 187 155 48 69 117 202 53 150 210 144 91 88 36 108 21 207 63 8 14 68 124 194 58 215 179 230 227 160 78 22 226 188 152 182 198 103 64 192 166 57 186 129 7 45 120 84 28 71 12 217 31 204 82 142 96 213 47 18 219 98 94 5 72 39 115 80 231 189 153 76 209 171 228 222 191 181 177 145 140 139 85 151 212 41 199 173 112 13 55 176 224 101 119 73 162 196 164 123 190 42 100 154 23 201
b 39 6 193 2 29 32 102 59 15 17 116 114 19 167 184 134 60 90 170 83 174 146 66 50 135 203 106 44 35 40 220 43 225 158 180 1 26 183 118 206 51 92 223 137 109 136 107 89 126 211 113 95 87 143 34 172 195 175 165 77 38 163 61 86 10 110 229 132 187 155 48 69 117 202 53 150 210 144 91 88 36 108 21 207 63 8 14 68 124 194 58 215 179 230 227 160 78 22 226 188 152 182 198 103 64 192 166 57 186 129 7 45 120 84 28 71 12 217 31 204 82 142 96 213 47 18 219 98 94 5 72 39 115 80 231 189 153 76 209 171 228 222 191 181 177 145 140 139 85 151 212 41 199 173 112 13 55 176 224 101 119 73 162 196 164 123 190 42 56 100 154 23 201
b 40 2 29 32 102 59 15 17 116 114 19 167 184 134 60 90 170 83 174 146 66 50 135 203 106 44 35 40 220 43 225 158 180 1 26 183 118 206 51 92 223 137 109 136 107 89 126 211 113 95 87 143 34 172 195 175 165 77 121 38 163 61 86 10 110 229 132 187 155 48 69 117 202 53 150 210 144 91 88 37 36 108 21 207 63 8 14 68 124 194 58 215 179 230 227 160 78 22 226 188 152 182 198 103 64 192 166 57 186 129 7 45 120 84 28 71 12 217 31 204 82 142 96 213 47 18 219 98 94 5 72 39 115 80 231 189 153 76 209 171 228 222 191 181 177 145 140 139 85 151 212 41 199 173 112 13 55 176 224 101 119 73 162 196 164 123 190 42 56 100 154 23 201
b 41 59 15 17 116 114 19 167 184 134 60 90 170 83 174 146 66 50 135 203 106 44 35 40 220 43 225 158 180 1 26 183 118 206 51 92 223 137 109 136 107 89 126 211 113 95 87 143 34 172 195 175 165 77 121 38 163 61 86 10 110 229 132 187 155 48 69 117 202 53 150 210 144 91 88 37 36 108 21 207 63 8 14 68 124 194 58 215 179 230 227 160 78 22 226 188 152 182 198 103 64 192 166 57 186 129 7 45 120 84 28 71 12 217 31 204 82 142 96 213 47 18 219 98 94 5 72 39 115 80 231 189 153 76 209 171 228 222 191 181 177 145 140 139 85 151 212 41 199 173 112 13 55 176 224 101 20 119 73 162 196 164 123 190 42 56 100 154 23 201
b 42 114 19 167 184 134 60 90 170 83 174 146 66 50 135 203 106 44 35 40 220 43 225 158 180 1 26 183 118 206 51 92 223 137 109 136 107 89 126 211 113 95 87 143 34 172 195 175 165 77 121 38 163 61 86 10 110 229 132 187 155 48 69 117 202 53 150 210 144 91 88 37 36 108 21 207 63 8 14 68 124 194 58 215 179 230 227 160 78 22 226 188 152 182 198 156 103 64 192 166 57 186 129 7 45 120 84 28 71 12 217 31 204 82 142 96 213 47 18 219 98 94 5 72 39 115 80 231 189 153 76 209 171 228 222 191 181 177 145 140 139 85 151 212 41 199 173 112 13 55 176 224 101 20 119 73 162 196 164 123 190 42 56 100 154 133 131 23 201
1 2
2 8
8 18
18 19
19 20
20 42
42 41
41 40
40 39
39 38
18 17
17 16
38 37
37 36
38 28
28 27
36 35
16 12
8 7
16 15
36 31
35 34
12 11
27 26
27 23
7 6
15 14
31 30
26 25
23 22
8 4
34 33
6 5
14 13
11 10
30 29
4 3
11 9
25 24
34 32
22 21
